18126 -6143 0 1 3 0
18127 6141 6142 0 18126 7 0
18128 5176 0 20 2898 18 23 15 11 9 18127 0
18129 3196 0 14 8820 9 2897 18127 23 11 0
18130 -6136 -2173 0 18128 18129 8821 2899 22 25 19 8 16 18127 12 0
18131 6136 0 21 24 18 11 15 18127 9 0
18132 -2173 0 18131 18130 0
18133 -6139 0 18132 17 0
18134 -3197 0 18132 8819 0
18135 -6140 0 18133 15 0
18136 -5177 0 18134 2897 0
18137 -6142 0 18135 9 0
18138 -6137 0 18136 23 0
18139 6141 0 18137 18127 0
18140 0 18139 18138 11 0
